Traveling Salesman Problem/TSP_generados/Aleatorio1621103405_13.tsp
NAME: Aleatorio1621103405_13.tsp
COMMENT: Randomly generated scenario
TYPE: TSP
DIMENSION: 13
EDGE_WEIGHT_TYPE: ATT
NODE_COORD_SECTION
1 23.24 4.95
2 45.74 24.49
3 9.73 38.64
4 32.72 49.77
5 18.77 16.79
6 23.76 24.97
7 22.28 49.14
8 49.23 39.93
9 43.49 8.2
10 39.18 34.06
11 15.59 16.47
12 10.12 27.48
13 24.02 4.32
