Traveling Salesman Problem/TSP_generados/Aleatorio1621103405_13.opt.tour
NAME: Aleatorio1621103405_13.opt.tour
COMMENT: Optimal solution for Aleatorio1621103405_13 (158.22590416830292)
TYPE: TOUR
DIMENSION: 13
TOUR_SECTION
1 11 5 6 12 3 7 4 8 10 2 9 13
-1
EOF
